QBPP_HJ+_30_025_10_5
30 148 240
20 34 50 3 17 11 7 25 44 45 41 14 23 5 44 15 10 34 16 20 31 33 43 18 26 18 25 12 7 46
    0    0    0    0    0   90    0    0    0    0    0    0    0   10    0    0    0    0    0   46    0    0    0   33   73    0   74    0    0    0
    0    0   55    0   86   52    0    0    0    0    0   28    0    0    0    0    0    0   38   50    0   24   76    0    0    0    0    0    0    0
    0   55    0    0    7    0    0    0    0    0   89  100    0    0    0    0    0   41    0   94   41    0   59    0    0    0    0    0    0    0
    0    0    0    0   95    0    0    0   23   24    0    0    0    0    0    0   53    0    0    0    0    0    0    0    0    0    0    0    0   23
    0   86    7   95    0    0   41    0    0    0    0   15    0  100    0   26    0   92    0    0    0    0    0    0    0    0   79   79   31    0
   90   52    0    0    0    0    0    0    0    0    0    0    0   26    0    0    0   65    0    0    0   69   53    0    0    0    0    0    0    0
    0    0    0    0   41    0    0   43    0   43    0    0    0    0    0    0    0    2    0   20   74    0    0    0    0    0    0    0    0    0
    0    0    0    0    0    0   43    0    0   87   78   52    0    0    0    0    0    0    0    0    0    0    0    0    0    8    3    0   90    0
    0    0    0   23    0    0    0    0    0   48    5    0    0    0   57    0    0    0    0    0   83    0    0    0    0    0   91    0    0    0
    0    0    0   24    0    0   43   87   48    0    0    0    0    0    0    0    0    0    0    0    0    0   95    0    0    0    0   13   24    0
    0    0   89    0    0    0    0   78    5    0    0    0    0    0   94   40    2    0    0    0    0   17    0    0    0    0    0   36    0    0
    0   28  100    0   15    0    0   52    0    0    0    0   22    0    0    0    0    0    0    0    0   88    0    0   68    0    0    0    0    0
    0    0    0    0    0    0    0    0    0    0    0   22    0    0    0    0    0   27   66    0   30    0    0    0   59    0   24    0    0    0
   10    0    0    0  100   26    0    0    0    0    0    0    0    0   12    0    0    0    0    0    0    0    0    0    0    0    0    0    0    0
    0    0    0    0    0    0    0    0   57    0   94    0    0   12    0    0    0    0    0    0    0    0    0    0    0    0    0    0    0    0
    0    0    0    0   26    0    0    0    0    0   40    0    0    0    0    0    0    0   14    0   97   31    0    0    0   31    8    0    0    0
    0    0    0   53    0    0    0    0    0    0    2    0    0    0    0    0    0   14    0   75   18    0   23    0    0    0    0    0    0   58
    0    0   41    0   92   65    2    0    0    0    0    0   27    0    0    0   14    0    0    0    0    0    0    0   94    8   72    0    0    0
    0   38    0    0    0    0    0    0    0    0    0    0   66    0    0   14    0    0    0    0    0    0   73    0    0    0    0    0    0    0
   46   50   94    0    0    0   20    0    0    0    0    0    0    0    0    0   75    0    0    0    0    0    1    0    0    0    0    0    0    0
    0    0   41    0    0    0   74    0   83    0    0    0   30    0    0   97   18    0    0    0    0    0    0    0   98    0   30    0    0   78
    0   24    0    0    0   69    0    0    0    0   17   88    0    0    0   31    0    0    0    0    0    0    0    0    0   20   56    0    0    0
    0   76   59    0    0   53    0    0    0   95    0    0    0    0    0    0   23    0   73    1    0    0    0   55   71    0    0    0    0   25
   33    0    0    0    0    0    0    0    0    0    0    0    0    0    0    0    0    0    0    0    0    0   55    0    0   18    0   19    0   67
   73    0    0    0    0    0    0    0    0    0    0   68   59    0    0    0    0   94    0    0   98    0   71    0    0    0    0    0    0   99
    0    0    0    0    0    0    0    8    0    0    0    0    0    0    0   31    0    8    0    0    0   20    0   18    0    0   13    0   38    0
   74    0    0    0   79    0    0    3   91    0    0    0   24    0    0    8    0   72    0    0   30   56    0    0    0   13    0    0   82    0
    0    0    0    0   79    0    0    0    0   13   36    0    0    0    0    0    0    0    0    0    0    0    0   19    0    0    0    0   91    0
    0    0    0    0   31    0    0   90    0   24    0    0    0    0    0    0    0    0    0    0    0    0    0    0    0   38   82   91    0    0
    0    0    0   23    0    0    0    0    0    0    0    0    0    0    0    0   58    0    0    0   78    0   25   67   99    0    0    0    0    0
